7 7 1.0
7 1 1 692 1 2 310 1 3 832 1 4 630 1 5 258 1 6 147 1 7 255 
7 1 1 581 1 2 582 1 3 14 1 4 214 1 5 147 1 6 753 1 7 806 
7 1 1 475 1 2 475 1 3 785 1 4 578 1 5 852 1 6 2 1 7 699 
7 1 1 23 1 2 196 1 3 696 1 4 214 1 5 586 1 6 356 1 7 877 
7 1 1 158 1 2 325 1 3 530 1 4 785 1 5 325 1 6 565 1 7 412 
7 1 1 796 1 2 874 1 3 214 1 4 236 1 5 896 1 6 898 1 7 302 
7 1 1 542 1 2 205 1 3 578 1 4 963 1 5 325 1 6 800 1 7 120 
2 827 298 1336 756 2050 2852 
2 344 409 1075 304 1877 2575 
2 429 539 1286 1185 2081 3394 
2 900 306 1504 193 2279 3151 
2 13 256 1439 155 2180 2905 
2 248 314 1447 994 2138 3145 
2 402 437 1299 334 2214 2994 
